45
1 0 1
2 0 1
2 1 1
3 0 1
3 2 1
4 0 1
5 2 1
5 4 1
6 0 1
6 1 1
6 3 1
6 5 1
7 3 1
7 6 1
8 2 1
8 6 1
9 0 1
9 2 1
9 6 1
9 8 1
10 2 1
10 4 1
10 6 1
10 8 1
10 9 1
11 0 1
11 4 1
11 6 1
11 8 1
11 10 1
12 0 1
12 3 1
12 6 1
12 8 1
13 1 1
13 3 1
13 4 1
13 5 1
13 6 1
13 7 1
13 9 1
14 4 1
14 6 1
14 8 1
14 9 1
14 13 1
15 0 1
15 1 1
15 2 1
15 8 1
15 10 1
15 11 1
15 12 1
15 13 1
15 14 1
16 1 1
16 2 1
16 3 1
16 5 1
16 7 1
16 10 1
16 11 1
16 13 1
16 14 1
17 0 1
17 3 1
17 7 1
17 8 1
17 10 1
17 13 1
17 14 1
18 0 1
18 2 1
18 3 1
18 4 1
18 5 1
18 6 1
18 7 1
18 8 1
18 9 1
18 11 1
18 12 1
18 13 1
18 14 1
19 1 1
19 4 1
19 5 1
19 6 1
19 7 1
19 9 1
19 10 1
19 11 1
19 12 1
19 13 1
19 14 1
19 15 1
20 3 1
20 5 1
20 6 1
20 7 1
20 9 1
20 10 1
20 11 1
20 12 1
20 13 1
20 16 1
20 17 1
21 0 1
21 2 1
21 6 1
21 7 1
21 10 1
21 12 1
21 13 1
21 14 1
21 15 1
21 16 1
21 19 1
22 0 1
22 3 1
22 5 1
22 9 1
22 11 1
22 13 1
22 15 1
22 16 1
22 17 1
23 0 1
23 1 1
23 2 1
23 4 1
23 5 1
23 8 1
23 12 1
23 13 1
23 14 1
23 15 1
23 16 1
23 17 1
23 19 1
23 21 1
24 0 1
24 4 1
24 5 1
24 6 1
24 7 1
24 8 1
24 9 1
24 10 1
24 11 1
24 12 1
24 13 1
24 15 1
24 16 1
24 19 1
24 21 1
24 23 1
25 2 1
25 4 1
25 5 1
25 6 1
25 9 1
25 12 1
25 16 1
25 17 1
25 20 1
25 21 1
25 22 1
25 23 1
26 2 1
26 5 1
26 7 1
26 13 1
26 14 1
26 15 1
26 17 1
26 18 1
26 21 1
26 23 1
26 24 1
27 0 1
27 1 1
27 2 1
27 4 1
27 6 1
27 7 1
27 9 1
27 11 1
27 12 1
27 15 1
27 16 1
27 19 1
27 20 1
27 22 1
27 24 1
28 0 1
28 1 1
28 3 1
28 4 1
28 6 1
28 9 1
28 12 1
28 15 1
28 17 1
28 18 1
28 19 1
28 21 1
28 22 1
28 24 1
28 26 1
29 0 1
29 1 1
29 3 1
29 6 1
29 7 1
29 8 1
29 9 1
29 12 1
29 15 1
29 16 1
29 17 1
29 18 1
29 20 1
29 24 1
30 0 1
30 1 1
30 3 1
30 4 1
30 5 1
30 6 1
30 8 1
30 9 1
30 14 1
30 18 1
30 19 1
30 21 1
30 23 1
30 24 1
30 26 1
30 27 1
31 0 1
31 2 1
31 3 1
31 4 1
31 5 1
31 6 1
31 9 1
31 10 1
31 12 1
31 14 1
31 15 1
31 17 1
31 19 1
31 21 1
31 22 1
31 23 1
31 24 1
31 25 1
31 27 1
31 28 1
31 30 1
32 3 1
32 5 1
32 17 1
32 18 1
32 19 1
32 23 1
32 25 1
32 26 1
32 27 1
32 29 1
33 0 1
33 1 1
33 2 1
33 3 1
33 4 1
33 7 1
33 9 1
33 13 1
33 14 1
33 15 1
33 19 1
33 20 1
33 28 1
33 29 1
33 30 1
33 32 1
34 0 1
34 1 1
34 3 1
34 5 1
34 9 1
34 11 1
34 12 1
34 13 1
34 14 1
34 15 1
34 17 1
34 18 1
34 19 1
34 21 1
34 22 1
34 23 1
34 25 1
34 27 1
34 29 1
34 30 1
34 31 1
35 2 1
35 5 1
35 7 1
35 10 1
35 14 1
35 16 1
35 17 1
35 19 1
35 22 1
35 23 1
35 25 1
35 26 1
35 31 1
36 1 1
36 2 1
36 7 1
36 8 1
36 9 1
36 10 1
36 12 1
36 13 1
36 14 1
36 16 1
36 17 1
36 18 1
36 19 1
36 20 1
36 21 1
36 23 1
36 24 1
36 25 1
36 29 1
36 30 1
36 32 1
36 33 1
37 2 1
37 3 1
37 4 1
37 6 1
37 8 1
37 9 1
37 11 1
37 12 1
37 13 1
37 15 1
37 16 1
37 19 1
37 22 1
37 24 1
37 25 1
37 26 1
37 28 1
37 29 1
37 31 1
37 32 1
37 33 1
37 34 1
37 36 1
38 0 1
38 1 1
38 2 1
38 4 1
38 5 1
38 6 1
38 11 1
38 12 1
38 14 1
38 15 1
38 16 1
38 19 1
38 21 1
38 23 1
38 26 1
38 27 1
38 28 1
38 33 1
38 36 1
39 0 1
39 3 1
39 4 1
39 5 1
39 6 1
39 9 1
39 11 1
39 12 1
39 15 1
39 17 1
39 19 1
39 21 1
39 22 1
39 23 1
39 26 1
39 27 1
39 28 1
39 30 1
39 31 1
39 37 1
40 0 1
40 1 1
40 2 1
40 3 1
40 4 1
40 6 1
40 7 1
40 11 1
40 14 1
40 15 1
40 17 1
40 19 1
40 20 1
40 21 1
40 24 1
40 26 1
40 29 1
40 30 1
40 31 1
40 32 1
40 33 1
40 38 1
40 39 1
41 0 1
41 1 1
41 2 1
41 3 1
41 4 1
41 5 1
41 6 1
41 8 1
41 9 1
41 11 1
41 16 1
41 17 1
41 18 1
41 22 1
41 26 1
41 27 1
41 30 1
41 32 1
41 35 1
41 38 1
41 39 1
42 2 1
42 3 1
42 5 1
42 6 1
42 7 1
42 9 1
42 10 1
42 11 1
42 12 1
42 13 1
42 14 1
42 15 1
42 16 1
42 19 1
42 20 1
42 21 1
42 25 1
42 29 1
42 30 1
42 32 1
42 35 1
42 36 1
42 38 1
42 39 1
43 0 1
43 1 1
43 3 1
43 4 1
43 5 1
43 6 1
43 8 1
43 11 1
43 14 1
43 17 1
43 18 1
43 19 1
43 21 1
43 22 1
43 25 1
43 27 1
43 30 1
43 34 1
43 35 1
43 36 1
43 39 1
44 1 1
44 3 1
44 8 1
44 11 1
44 14 1
44 15 1
44 18 1
44 19 1
44 20 1
44 22 1
44 25 1
44 26 1
44 27 1
44 28 1
44 29 1
44 30 1
44 31 1
44 32 1
44 36 1
44 37 1
44 38 1
44 42 1
44 43 1
